40
    43   100    53     5    90    67    98    80    45    52    19    20    65    22    78     6    39     1    13    26    82    63    41    69    37    39    58    27    76     9    36    97    98     8    26    77    31    24    59    69
     1     5     5     5     4    10     1    10     8     8     4     1     6     1     9     3     1     7     1     2     2     8     3     6     8     5     9     4     7     1     5     5     4     8     3     9     2     3     7     8
   422   532  1715  1540   598   781  1339   326  1439    39   296   800   938  1552    89  1275  1747   389   823   989  1257   426  1513  1014   182  1139  1359   307   425   947    51   514    28  1541   999    64   779  1484     0   929
